NAME : local_1
TYPE : ATSP
DIMENSION : 24
EDGE_WEIGHT_TYPE : EXPLICIT
EDGE_WEIGHT_FORMAT : FULL_MATRIX
EDGE_WEIGHT_SECTION
0 10000000 546 859 638 759 10000000 949 10000000 10000000 920 10000000 10000000 628 391 504 10000000 10000000 10000000 10000000 10000000 10000000 10000000 979 
0 0 10000000 10000000 10000000 10000000 10000000 10000000 980 10000000 680 477 10000000 10000000 10000000 10000000 773 626 867 612 291 907 10000000 10000000 
0 10000000 0 10000000 789 768 10000000 564 1011 10000000 784 857 10000000 10000000 888 10000000 10000000 10000000 10000000 10000000 10000000 10000000 10000000 10000000 
0 10000000 10000000 0 407 586 602 10000000 10000000 732 10000000 10000000 760 658 10000000 10000000 10000000 10000000 717 692 1032 635 594 234 
0 10000000 789 407 0 226 836 764 10000000 573 10000000 10000000 514 764 944 977 10000000 10000000 10000000 10000000 10000000 992 638 397 
0 10000000 768 586 226 0 869 593 10000000 425 10000000 10000000 322 985 10000000 10000000 10000000 10000000 10000000 10000000 10000000 10000000 595 490 
0 10000000 10000000 602 836 869 0 10000000 10000000 677 10000000 10000000 807 10000000 10000000 10000000 10000000 10000000 10000000 853 10000000 393 354 450 
0 10000000 564 10000000 764 593 10000000 0 861 781 10000000 10000000 644 10000000 10000000 10000000 1102 10000000 10000000 10000000 10000000 10000000 10000000 10000000 
0 980 994 10000000 10000000 10000000 10000000 886 0 10000000 10000000 682 10000000 10000000 10000000 10000000 239 10000000 10000000 10000000 952 10000000 10000000 10000000 
0 10000000 10000000 732 573 425 677 781 10000000 0 10000000 10000000 160 10000000 10000000 10000000 10000000 10000000 10000000 10000000 10000000 982 323 517 
0 680 784 10000000 10000000 10000000 10000000 10000000 10000000 10000000 0 381 10000000 10000000 1150 10000000 930 478 10000000 10000000 937 10000000 10000000 10000000 
0 477 857 10000000 10000000 10000000 10000000 10000000 682 10000000 381 0 10000000 10000000 10000000 10000000 565 672 10000000 1004 656 10000000 10000000 10000000 
0 10000000 10000000 760 514 322 807 644 10000000 160 10000000 10000000 0 10000000 10000000 10000000 10000000 10000000 10000000 10000000 10000000 10000000 462 574 
0 10000000 10000000 658 764 985 10000000 10000000 10000000 10000000 10000000 10000000 10000000 0 542 442 10000000 10000000 566 872 10000000 10000000 10000000 881 
0 10000000 888 10000000 944 10000000 10000000 10000000 10000000 10000000 1072 10000000 10000000 542 0 160 10000000 10000000 10000000 10000000 10000000 10000000 10000000 10000000 
0 10000000 10000000 10000000 977 10000000 10000000 10000000 10000000 10000000 10000000 10000000 10000000 442 160 0 10000000 10000000 937 10000000 10000000 10000000 10000000 10000000 
0 773 10000000 10000000 10000000 10000000 10000000 1085 239 10000000 930 565 10000000 10000000 10000000 10000000 0 10000000 10000000 10000000 720 898 10000000 10000000 
0 626 10000000 10000000 10000000 10000000 10000000 10000000 10000000 10000000 478 672 10000000 10000000 10000000 10000000 10000000 0 10000000 10000000 914 10000000 10000000 10000000 
0 838 10000000 717 10000000 10000000 10000000 10000000 10000000 10000000 10000000 10000000 10000000 566 10000000 937 10000000 10000000 0 418 782 876 10000000 930 
0 612 10000000 692 10000000 10000000 853 10000000 10000000 10000000 10000000 1034 10000000 872 10000000 10000000 10000000 10000000 418 0 464 530 10000000 827 
0 291 10000000 1088 10000000 10000000 10000000 10000000 952 10000000 937 656 10000000 10000000 10000000 10000000 720 914 782 464 0 677 10000000 10000000 
0 907 10000000 635 996 10000000 393 10000000 10000000 985 10000000 10000000 10000000 10000000 10000000 10000000 901 10000000 876 530 677 0 669 601 
0 10000000 10000000 594 638 595 354 10000000 10000000 323 10000000 10000000 462 10000000 10000000 10000000 10000000 10000000 10000000 10000000 10000000 669 0 362 
0 10000000 10000000 10000000 10000000 10000000 10000000 10000000 10000000 10000000 10000000 10000000 10000000 10000000 10000000 10000000 10000000 10000000 10000000 10000000 10000000 10000000 10000000 0 
EOF